(set-info :smt-lib-version 2.6)
(set-logic QF_AX)
(set-info :source |
Benchmarks used in the followin paper:
Big proof engines as little proof engines: new results on rewrite-based satisfiability procedure
Alessandro Armando, Maria Paola Bonacina, Silvio Ranise, Stephan Schulz. 
PDPAR'05
http://www.ai.dist.unige.it/pdpar05/


|)
(set-info :category "crafted")
(set-info :status unsat)
(declare-sort Index 0)
(declare-sort Element 0)
(declare-fun a_241 () (Array Index Element))
(declare-fun a_242 () (Array Index Element))
(declare-fun a_244 () (Array Index Element))
(declare-fun a_246 () (Array Index Element))
(declare-fun a_248 () (Array Index Element))
(declare-fun a_250 () (Array Index Element))
(declare-fun a_252 () (Array Index Element))
(declare-fun a_254 () (Array Index Element))
(declare-fun a_256 () (Array Index Element))
(declare-fun a_258 () (Array Index Element))
(declare-fun a_260 () (Array Index Element))
(declare-fun a_262 () (Array Index Element))
(declare-fun a_264 () (Array Index Element))
(declare-fun a_266 () (Array Index Element))
(declare-fun a_268 () (Array Index Element))
(declare-fun a_270 () (Array Index Element))
(declare-fun a_271 () (Array Index Element))
(declare-fun a_272 () (Array Index Element))
(declare-fun a_274 () (Array Index Element))
(declare-fun a_276 () (Array Index Element))
(declare-fun a_278 () (Array Index Element))
(declare-fun a_280 () (Array Index Element))
(declare-fun a_282 () (Array Index Element))
(declare-fun a_284 () (Array Index Element))
(declare-fun a_286 () (Array Index Element))
(declare-fun a_288 () (Array Index Element))
(declare-fun a_290 () (Array Index Element))
(declare-fun a_292 () (Array Index Element))
(declare-fun e_240 () Element)
(declare-fun e_243 () Element)
(declare-fun e_245 () Element)
(declare-fun e_247 () Element)
(declare-fun e_249 () Element)
(declare-fun e_251 () Element)
(declare-fun e_253 () Element)
(declare-fun e_255 () Element)
(declare-fun e_257 () Element)
(declare-fun e_259 () Element)
(declare-fun e_261 () Element)
(declare-fun e_263 () Element)
(declare-fun e_265 () Element)
(declare-fun e_267 () Element)
(declare-fun e_269 () Element)
(declare-fun e_273 () Element)
(declare-fun e_275 () Element)
(declare-fun e_277 () Element)
(declare-fun e_279 () Element)
(declare-fun e_281 () Element)
(declare-fun e_283 () Element)
(declare-fun e_285 () Element)
(declare-fun e_287 () Element)
(declare-fun e_289 () Element)
(declare-fun e_291 () Element)
(declare-fun a1 () (Array Index Element))
(declare-fun i0 () Index)
(declare-fun i2 () Index)
(declare-fun i3 () Index)
(declare-fun i4 () Index)
(declare-fun i5 () Index)
(declare-fun i6 () Index)
(declare-fun i7 () Index)
(assert (= a_241 (store a1 i3 e_240)))
(assert (= a_242 (store a_241 i3 e_240)))
(assert (= a_244 (store a_242 i5 e_243)))
(assert (= a_246 (store a_244 i7 e_245)))
(assert (= a_248 (store a_246 i6 e_247)))
(assert (= a_250 (store a_248 i7 e_249)))
(assert (= a_252 (store a_250 i5 e_251)))
(assert (= a_254 (store a_252 i7 e_253)))
(assert (= a_256 (store a_254 i0 e_255)))
(assert (= a_258 (store a_256 i7 e_257)))
(assert (= a_260 (store a_258 i4 e_259)))
(assert (= a_262 (store a_260 i2 e_261)))
(assert (= a_264 (store a_262 i5 e_263)))
(assert (= a_266 (store a_264 i2 e_265)))
(assert (= a_268 (store a_266 i7 e_267)))
(assert (= a_270 (store a_268 i0 e_269)))
(assert (= a_271 (store a_246 i7 e_249)))
(assert (= a_272 (store a_271 i6 e_247)))
(assert (= a_274 (store a_272 i7 e_273)))
(assert (= a_276 (store a_274 i5 e_275)))
(assert (= a_278 (store a_276 i7 e_277)))
(assert (= a_280 (store a_278 i0 e_279)))
(assert (= a_282 (store a_280 i2 e_281)))
(assert (= a_284 (store a_282 i4 e_283)))
(assert (= a_286 (store a_284 i2 e_285)))
(assert (= a_288 (store a_286 i5 e_287)))
(assert (= a_290 (store a_288 i7 e_289)))
(assert (= a_292 (store a_290 i0 e_291)))
(assert (= e_240 (select a1 i3)))
(assert (= e_243 (select a_242 i7)))
(assert (= e_245 (select a_242 i5)))
(assert (= e_247 (select a_246 i7)))
(assert (= e_249 (select a_246 i6)))
(assert (= e_251 (select a_250 i7)))
(assert (= e_253 (select a_250 i5)))
(assert (= e_255 (select a_254 i7)))
(assert (= e_257 (select a_254 i0)))
(assert (= e_259 (select a_258 i2)))
(assert (= e_261 (select a_258 i4)))
(assert (= e_263 (select a_262 i2)))
(assert (= e_265 (select a_262 i5)))
(assert (= e_267 (select a_266 i0)))
(assert (= e_269 (select a_266 i7)))
(assert (= e_273 (select a_272 i5)))
(assert (= e_275 (select a_272 i7)))
(assert (= e_277 (select a_276 i0)))
(assert (= e_279 (select a_276 i7)))
(assert (= e_281 (select a_280 i4)))
(assert (= e_283 (select a_280 i2)))
(assert (= e_285 (select a_284 i5)))
(assert (= e_287 (select a_284 i2)))
(assert (= e_289 (select a_288 i0)))
(assert (= e_291 (select a_288 i7)))
(assert (not (= a_270 a_292)))
(check-sat)
(exit)
